\ Model MainOptimizationProblem
\ LP format - for model browsing. Use MPS format to capture full model detail.
Minimize
  159.2860139877016 x1 + 181.4651536186798 x2 + 118.6668428364918 x3
   + 185.8605207288392 x4 + 179.5176711938148 x5 + 194.9422421935972 x6
   + 126.4222600081149 x7 + 166.8279522307404 x8 + 153.5580601769159 x9
   + 168.2762949967423 x10 + 185.8946925669181 x11 + 192.4694220920068 x12
   + 184.3580569298108 x13 + 153.0131473131776 x14 + 103.8354030067849 x15
   + 123.4654988584055 x16 + 129.6472143053626 x17 + 111.9227862663176 x18
   + 191.5016823277713 x19 + 6438.5 z1 + 7196 z2 + 7953.5 z3 + 8711 z4
   + 9468.5 z5 + 10226 z6 + 10983.5 z7 + 11741 z8 + 12498.5 z9 + 13256 z10
   + 14013.5 z11 + 14771 z12 + 15528.5 z13 + 16286 z14 + 17043.5 z15
   + 17801 z16 + 18558.5 z17 + 19316 z18 + 20073.5 z19 + 20831 z20
Subject To
 c0: x0 = 0
 flow_constr4: - s0 + s4 >= 0
 flow_constr3: - s0 + s3 >= 0
 flow_constr1: - s0 + s1 >= 0
 flow_constr2: - s0 + s2 >= 0
 flow_constr5: - s0 + s5 >= 0
 flow_constr17: 4.03571893918602 x4 - s4 + s17 >= 12.3061543588455
 flow_constr11: 4.03571893918602 x4 - s4 + s11 >= 12.3061543588455
 flow_constr9: 4.03571893918602 x4 - s4 + s9 >= 12.3061543588455
 flow_constr13: 4.03571893918602 x4 - s4 + s13 >= 12.3061543588455
 flow_constr8: 4.03571893918602 x4 - s4 + s8 >= 12.3061543588455
 flow_constr12: 5.222440556252993 x3 - s3 + s12 >= 11.75092488990129
 flow_constr13: 5.222440556252993 x3 - s3 + s13 >= 11.75092488990129
 flow_constr4: 5.222440556252993 x3 - s3 + s4 >= 11.75092488990129
 flow_constr6: 5.222440556252993 x3 - s3 + s6 >= 11.75092488990129
 flow_constr15: 5.222440556252993 x3 - s3 + s15 >= 11.75092488990129
 flow_constr17: 5.222440556252993 x3 - s3 + s17 >= 11.75092488990129
 flow_constr11: 5.222440556252993 x3 - s3 + s11 >= 11.75092488990129
 flow_constr15: 5.881704688115081 x1 - s1 + s15 >= 17.30571719952207
 flow_constr10: 5.881704688115081 x1 - s1 + s10 >= 17.30571719952207
 flow_constr14: 5.881704688115081 x1 - s1 + s14 >= 17.30571719952207
 flow_constr6: 5.881704688115081 x1 - s1 + s6 >= 17.30571719952207
 flow_constr7: 5.881704688115081 x1 - s1 + s7 >= 17.30571719952207
 flow_constr16: 5.881704688115081 x1 - s1 + s16 >= 17.30571719952207
 flow_constr17: 5.881704688115081 x1 - s1 + s17 >= 17.30571719952207
 flow_constr9: 5.881704688115081 x1 - s1 + s9 >= 17.30571719952207
 flow_constr18: 6.891666101204444 x2 - s2 + s18 >= 35.74806974798899
 flow_constr7: 6.891666101204444 x2 - s2 + s7 >= 35.74806974798899
 flow_constr4: 6.891666101204444 x2 - s2 + s4 >= 35.74806974798899
 flow_constr13: 6.891666101204444 x2 - s2 + s13 >= 35.74806974798899
 flow_constr6: 6.891666101204444 x2 - s2 + s6 >= 35.74806974798899
 flow_constr17: 6.891666101204444 x2 - s2 + s17 >= 35.74806974798899
 flow_constr14: 6.891666101204444 x2 - s2 + s14 >= 35.74806974798899
 flow_constr7: 6.472455281561375 x5 - s5 + s7 >= 24.64326896724071
 flow_constr9: 6.472455281561375 x5 - s5 + s9 >= 24.64326896724071
 flow_constr8: 6.472455281561375 x5 - s5 + s8 >= 24.64326896724071
 flow_constr16: 6.472455281561375 x5 - s5 + s16 >= 24.64326896724071
 flow_constr11: 6.472455281561375 x5 - s5 + s11 >= 24.64326896724071
 flow_constr6: 6.472455281561375 x5 - s5 + s6 >= 24.64326896724071
 flow_constr17: 6.472455281561375 x5 - s5 + s17 >= 24.64326896724071
 flow_constr19: 1.247979683666117 x7 - s7 + s19 >= 7.805968536016358
 flow_constr12: 1.247979683666117 x7 - s7 + s12 >= 7.805968536016358
 flow_constr19: 3.986920242482617 x9 - s9 + s19 >= 22.90951249971397
 flow_constr13: 3.986920242482617 x9 - s9 + s13 >= 22.90951249971397
 flow_constr12: 3.986920242482617 x9 - s9 + s12 >= 22.90951249971397
 flow_constr18: 3.986920242482617 x9 - s9 + s18 >= 22.90951249971397
 flow_constr14: 3.986920242482617 x9 - s9 + s14 >= 22.90951249971397
 flow_constr10: 3.986920242482617 x9 - s9 + s10 >= 22.90951249971397
 flow_constr19: 5.910630130444885 x8 - s8 + s19 >= 21.66489748332189
 flow_constr16: 5.910630130444885 x8 - s8 + s16 >= 21.66489748332189
 flow_constr10: 5.910630130444885 x8 - s8 + s10 >= 21.66489748332189
 flow_constr12: 5.910630130444885 x8 - s8 + s12 >= 21.66489748332189
 flow_constr11: 5.910630130444885 x8 - s8 + s11 >= 21.66489748332189
 flow_constr18: 5.910630130444885 x8 - s8 + s18 >= 21.66489748332189
 flow_constr17: 5.910630130444885 x8 - s8 + s17 >= 21.66489748332189
 flow_constr19: 3.942895065547324 x16 - s16 + s19 >= 17.76325446510193
 flow_constr18: 3.942895065547324 x16 - s16 + s18 >= 17.76325446510193
 flow_constr19: 8.890273074675401 x11 - s11 + s19 >= 20.08271684806821
 flow_constr18: 8.890273074675401 x11 - s11 + s18 >= 20.08271684806821
 flow_constr16: 8.890273074675401 x11 - s11 + s16 >= 20.08271684806821
 flow_constr19: 7.337969380921168 x15 - s15 + s19 >= 24.49182195375787
 flow_constr16: 7.337969380921168 x15 - s15 + s16 >= 24.49182195375787
 flow_constr19: 3.144700642690383 x10 - s10 + s19 >= 17.18505295515803
 flow_constr13: 3.144700642690383 x10 - s10 + s13 >= 17.18505295515803
 flow_constr19: 1.693686612430856 x14 - s14 + s19 >= 6.787879569968752
 flow_constr15: 1.693686612430856 x14 - s14 + s15 >= 6.787879569968752
 flow_constr19: 4.014364644782164 x6 - s6 + s19 >= 10.96440229271454
 flow_constr9: 4.014364644782164 x6 - s6 + s9 >= 10.96440229271454
 flow_constr7: 4.014364644782164 x6 - s6 + s7 >= 10.96440229271454
 flow_constr14: 4.014364644782164 x6 - s6 + s14 >= 10.96440229271454
 flow_constr8: 4.014364644782164 x6 - s6 + s8 >= 10.96440229271454
 flow_constr18: 4.014364644782164 x6 - s6 + s18 >= 10.96440229271454
 flow_constr19: 4.42373727419805 x17 - s17 + s19 >= 14.57178998855959
 flow_constr19: 7.241735764379067 x18 - s18 + s19 >= 40.3614723086775
 flow_constr19: 7.86540793964331 x12 - s12 + s19 >= 22.90006062904544
 flow_constr19: 3.398074345693875 x13 - s13 + s19 >= 10.4777175507805
 flow_constr17: 3.398074345693875 x13 - s13 + s17 >= 10.4777175507805
 p-1: s19 - 4356 z1 >= -4227.85
 p+1: s19 - 4356 z1 <= 128.15
 p-2: s19 - 4356 z2 >= -4212.7
 p+2: s19 - 4356 z2 <= 143.3
 p-3: s19 - 4356 z3 >= -4197.55
 p+3: s19 - 4356 z3 <= 158.45
 p-4: s19 - 4356 z4 >= -4182.4
 p+4: s19 - 4356 z4 <= 173.6
 p-5: s19 - 4356 z5 >= -4167.25
 p+5: s19 - 4356 z5 <= 188.75
 p-6: s19 - 4356 z6 >= -4152.1
 p+6: s19 - 4356 z6 <= 203.9
 p-7: s19 - 4356 z7 >= -4136.95
 p+7: s19 - 4356 z7 <= 219.05
 p-8: s19 - 4356 z8 >= -4121.8
 p+8: s19 - 4356 z8 <= 234.2
 p-9: s19 - 4356 z9 >= -4106.65
 p+9: s19 - 4356 z9 <= 249.35
 p-10: s19 - 4356 z10 >= -4091.5
 p+10: s19 - 4356 z10 <= 264.5
 p-11: s19 - 4356 z11 >= -4076.35
 p+11: s19 - 4356 z11 <= 279.65
 p-12: s19 - 4356 z12 >= -4061.2
 p+12: s19 - 4356 z12 <= 294.8
 p-13: s19 - 4356 z13 >= -4046.05
 p+13: s19 - 4356 z13 <= 309.95
 p-14: s19 - 4356 z14 >= -4030.9
 p+14: s19 - 4356 z14 <= 325.1
 p-15: s19 - 4356 z15 >= -4015.75
 p+15: s19 - 4356 z15 <= 340.25
 p-16: s19 - 4356 z16 >= -4000.6
 p+16: s19 - 4356 z16 <= 355.4
 p-17: s19 - 4356 z17 >= -3985.45
 p+17: s19 - 4356 z17 <= 370.55
 p-18: s19 - 4356 z18 >= -3970.3
 p+18: s19 - 4356 z18 <= 385.7
 p-19: s19 - 4356 z19 >= -3955.15
 p+19: s19 - 4356 z19 <= 400.85
 p-20: s19 - 4356 z20 >= -3940
 p+20: s19 - 4356 z20 <= 416
Bounds
Binaries
 x0 x1 x2 x3 x4 x5 x6 x7 x8 x9 x10 x11 x12 x13 x14 x15 x16 x17 x18 x19 z1
 z2 z3 z4 z5 z6 z7 z8 z9 z10 z11 z12 z13 z14 z15 z16 z17 z18 z19 z20
Generals
 s0 s1 s2 s3 s4 s5 s6 s7 s8 s9 s10 s11 s12 s13 s14 s15 s16 s17 s18 s19
End
